% From Gecode's examples/domino.cc
% Example 2
r = 7;
c = 8;
high = 6;
board = array2d(1..r, 1..c, 
    [
      4,4,5,4,0,3,6,5,
      1,6,0,1,5,3,4,1,
      2,6,2,2,5,3,6,0,
      1,3,0,6,4,4,2,3,
      3,5,5,2,4,2,2,1,
      2,1,3,3,5,6,6,1,
      5,1,6,0,0,0,4,0
    ])
;
